(benchmark gametime
:status unknown
:logic QF_AUFBV
:extrafuns ((gtINDEX64  BitVec[32]))
:extrafuns ((gtFIELD__bitsForTID0__gtAGG____anonstruct_D_Work_4  Array[32:32]))
:extrafuns ((gtINDEX65  BitVec[32]))
:extrafuns ((gtAGG__rtDWork  BitVec[32]))
:extrafuns ((gtINDEX62  BitVec[32]))
:extrafuns ((gtINDEX63  BitVec[32]))
:extrafuns ((gtINDEX60  BitVec[32]))
:extrafuns ((gtINDEX61  BitVec[32]))
:extrafuns ((gtINDEX58  BitVec[32]))
:extrafuns ((gtINDEX59  BitVec[32]))
:extrafuns ((gtINDEX57  BitVec[32]))
:extrafuns ((gtINDEX56  BitVec[32]))
:extrafuns ((gtINDEX55  BitVec[32]))
:extrafuns ((gtINDEX54  BitVec[32]))
:extrafuns ((gtINDEX52  BitVec[32]))
:extrafuns ((gtINDEX53  BitVec[32]))
:extrafuns ((gtINDEX50  BitVec[32]))
:extrafuns ((gtINDEX51  BitVec[32]))
:extrafuns ((gtINDEX49  BitVec[32]))
:extrafuns ((gtINDEX47  BitVec[32]))
:extrafuns ((gtINDEX48  BitVec[32]))
:extrafuns ((gtINDEX45  BitVec[32]))
:extrafuns ((gtINDEX46  BitVec[32]))
:extrafuns ((gtINDEX44  BitVec[32]))
:extrafuns ((gtINDEX43  BitVec[32]))
:extrafuns ((gtINDEX41  BitVec[32]))
:extrafuns ((gtINDEX42  BitVec[32]))
:extrafuns ((gtINDEX39  BitVec[32]))
:extrafuns ((gtINDEX40  BitVec[32]))
:extrafuns ((gtINDEX37  BitVec[32]))
:extrafuns ((gtINDEX38  BitVec[32]))
:extrafuns ((gtINDEX35  BitVec[32]))
:extrafuns ((gtINDEX36  BitVec[32]))
:extrafuns ((gtINDEX33  BitVec[32]))
:extrafuns ((gtINDEX34  BitVec[32]))
:extrafuns ((gtINDEX31  BitVec[32]))
:extrafuns ((gtINDEX32  BitVec[32]))
:extrafuns ((gtINDEX29  BitVec[32]))
:extrafuns ((gtINDEX30  BitVec[32]))
:extrafuns ((gtINDEX27  BitVec[32]))
:extrafuns ((gtINDEX28  BitVec[32]))
:extrafuns ((gtINDEX26  BitVec[32]))
:extrafuns ((gtINDEX25  BitVec[32]))
:extrafuns ((gtINDEX24  BitVec[32]))
:extrafuns ((gtINDEX23  BitVec[32]))
:extrafuns ((gtINDEX22  BitVec[32]))
:extrafuns ((gtINDEX21  BitVec[32]))
:extrafuns ((gtINDEX20  BitVec[32]))
:extrafuns ((gtINDEX18  BitVec[32]))
:extrafuns ((gtINDEX19  BitVec[32]))
:extrafuns ((gtINDEX16  BitVec[32]))
:extrafuns ((gtINDEX17  BitVec[32]))
:extrafuns ((gtINDEX14  BitVec[32]))
:extrafuns ((gtINDEX15  BitVec[32]))
:extrafuns ((gtINDEX12  BitVec[32]))
:extrafuns ((gtINDEX13  BitVec[32]))
:extrafuns ((gtINDEX10  BitVec[32]))
:extrafuns ((gtINDEX11  BitVec[32]))
:extrafuns ((gtINDEX8  BitVec[32]))
:extrafuns ((gtINDEX9  BitVec[32]))
:extrafuns ((gtINDEX6  BitVec[32]))
:extrafuns ((gtINDEX7  BitVec[32]))
:extrafuns ((gtINDEX4  BitVec[32]))
:extrafuns ((gtINDEX5  BitVec[32]))
:extrafuns ((gtINDEX2  BitVec[32]))
:extrafuns ((gtINDEX3  BitVec[32]))
:extrafuns ((gtINDEX0  BitVec[32]))
:extrafuns ((gtINDEX1  BitVec[32]))
:extrafuns ((gtFIELD__is_Eng__gtAGG____anonstruct_bitsForTID0_5_1_  Array[32:1]))
:extrafuns ((gtFIELD__is_Eng__gtAGG____anonstruct_bitsForTID0_5_2_  Array[32:1]))
:extrafuns ((sf_previousEvent_1_  BitVec[32]))
:extrafuns ((sfEvent__2_  BitVec[32]))
:extrafuns ((gtFIELD__is_Eng__gtAGG____anonstruct_bitsForTID0_5  Array[32:1]))
:extrafuns ((gtFIELD__sent__gtAGG____anonstruct_D_Work_4_1_  Array[32:32]))
:extrafuns ((gtFIELD__sent__gtAGG____anonstruct_D_Work_4_2_  Array[32:32]))
:extrafuns ((gtFIELD__is_active_Eng__gtAGG____anonstruct_bitsForTID0_5  Array[32:1]))
:extrafuns ((gtFIELD__temporalCounter_i5__gtAGG____anonstruct_D_Work_4  Array[32:32]))
:extrafuns ((gtFIELD__temporalCounter_i5__gtAGG____anonstruct_D_Work_4_1_  Array[32:32]))
:extrafuns ((gtFIELD__is_PURI__gtAGG____anonstruct_bitsForTID0_5  Array[32:2]))
:extrafuns ((gtFIELD__is_PURI__gtAGG____anonstruct_bitsForTID0_5_1_  Array[32:2]))
:extrafuns ((gtFIELD__URIex__gtAGG____anonstruct_bitsForTID0_5  Array[32:1]))
:extrafuns ((gtFIELD__URIex__gtAGG____anonstruct_bitsForTID0_5_1_  Array[32:1]))
:extrafuns ((gtFIELD__sh_rst__gtAGG____anonstruct_D_Work_4  Array[32:32]))
:extrafuns ((gtFIELD__sh_rst__gtAGG____anonstruct_D_Work_4_1_  Array[32:32]))
:extrafuns ((gtFIELD__n_t_a__gtAGG____anonstruct_D_Work_4  Array[32:32]))
:extrafuns ((gtFIELD__n_t_a__gtAGG____anonstruct_D_Work_4_1_  Array[32:32]))
:extrafuns ((sfEvent__1_  BitVec[32]))
:extrafuns ((gtFIELD__is_active_PURI__gtAGG____anonstruct_bitsForTID0_5  Array[32:1]))
:extrafuns ((gtFIELD__is_active_PVRP__gtAGG____anonstruct_bitsForTID0_5  Array[32:1]))
:extrafuns ((gtFIELD__is_active_PPVARP__gtAGG____anonstruct_bitsForTID0_5  Array[32:1]))
:extrafuns ((gtFIELD__is_active_PLRI__gtAGG____anonstruct_bitsForTID0_5  Array[32:1]))
:extrafuns ((gtFIELD__is_PAVI__gtAGG____anonstruct_bitsForTID0_5  Array[32:3]))
:extrafuns ((gtFIELD__is_active_PAVI__gtAGG____anonstruct_bitsForTID0_5  Array[32:1]))
:extrafuns ((sfEvent_  BitVec[32]))
:extrafuns ((gtFIELD__sent__gtAGG____anonstruct_D_Work_4  Array[32:32]))
:extrapreds ((constraint117 ))
:extrapreds ((constraint116 ))
:extrapreds ((constraint115 ))
:extrapreds ((constraint114 ))
:extrapreds ((constraint113 ))
:extrapreds ((constraint112 ))
:extrapreds ((constraint111 ))
:extrapreds ((constraint110 ))
:extrapreds ((constraint109 ))
:extrapreds ((constraint108 ))
:extrapreds ((constraint107 ))
:extrapreds ((constraint106 ))
:extrapreds ((constraint105 ))
:extrapreds ((constraint104 ))
:extrapreds ((constraint103 ))
:extrapreds ((constraint102 ))
:extrapreds ((constraint101 ))
:extrapreds ((constraint100 ))
:extrapreds ((constraint99 ))
:extrapreds ((constraint98 ))
:extrapreds ((constraint97 ))
:extrapreds ((constraint96 ))
:extrapreds ((constraint95 ))
:extrapreds ((constraint94 ))
:extrapreds ((constraint93 ))
:extrapreds ((constraint92 ))
:extrapreds ((constraint91 ))
:extrapreds ((constraint90 ))
:extrapreds ((constraint89 ))
:extrapreds ((constraint88 ))
:extrapreds ((constraint87 ))
:extrapreds ((constraint86 ))
:extrapreds ((constraint85 ))
:extrapreds ((constraint84 ))
:extrapreds ((constraint83 ))
:extrapreds ((constraint82 ))
:extrapreds ((constraint81 ))
:extrapreds ((constraint80 ))
:extrapreds ((constraint79 ))
:extrapreds ((constraint78 ))
:extrapreds ((constraint77 ))
:extrapreds ((constraint76 ))
:extrapreds ((constraint75 ))
:extrapreds ((constraint74 ))
:extrapreds ((constraint73 ))
:extrapreds ((constraint72 ))
:extrapreds ((constraint71 ))
:extrapreds ((constraint70 ))
:extrapreds ((constraint69 ))
:extrapreds ((constraint68 ))
:extrapreds ((constraint67 ))
:extrapreds ((constraint66 ))
:extrapreds ((constraint65 ))
:extrapreds ((constraint64 ))
:extrapreds ((constraint63 ))
:extrapreds ((constraint62 ))
:extrapreds ((constraint61 ))
:extrapreds ((constraint60 ))
:extrapreds ((constraint59 ))
:extrapreds ((constraint58 ))
:extrapreds ((constraint57 ))
:extrapreds ((constraint56 ))
:extrapreds ((constraint55 ))
:extrapreds ((constraint54 ))
:extrapreds ((constraint53 ))
:extrapreds ((constraint52 ))
:extrapreds ((constraint51 ))
:extrapreds ((constraint50 ))
:extrapreds ((constraint49 ))
:extrapreds ((constraint48 ))
:extrapreds ((constraint47 ))
:extrapreds ((constraint46 ))
:extrapreds ((constraint45 ))
:extrapreds ((constraint44 ))
:extrapreds ((constraint43 ))
:extrapreds ((constraint42 ))
:extrapreds ((constraint41 ))
:extrapreds ((constraint40 ))
:extrapreds ((constraint39 ))
:extrapreds ((constraint38 ))
:extrapreds ((constraint37 ))
:extrapreds ((constraint36 ))
:extrapreds ((constraint35 ))
:extrapreds ((constraint34 ))
:extrapreds ((constraint33 ))
:extrapreds ((constraint32 ))
:extrapreds ((constraint31 ))
:extrapreds ((constraint30 ))
:extrapreds ((constraint29 ))
:extrapreds ((constraint28 ))
:extrapreds ((constraint27 ))
:extrapreds ((constraint26 ))
:extrapreds ((constraint25 ))
:extrapreds ((constraint24 ))
:extrapreds ((constraint23 ))
:extrapreds ((constraint22 ))
:extrapreds ((constraint21 ))
:extrapreds ((constraint20 ))
:extrapreds ((constraint19 ))
:extrapreds ((constraint18 ))
:extrapreds ((constraint17 ))
:extrapreds ((constraint16 ))
:extrapreds ((constraint15 ))
:extrapreds ((constraint14 ))
:extrapreds ((constraint13 ))
:extrapreds ((constraint12 ))
:extrapreds ((constraint11 ))
:extrapreds ((constraint10 ))
:extrapreds ((constraint9 ))
:extrapreds ((constraint8 ))
:extrapreds ((constraint7 ))
:extrapreds ((constraint6 ))
:extrapreds ((constraint5 ))
:extrapreds ((constraint4 ))
:extrapreds ((constraint3 ))
:extrapreds ((constraint2 ))
:extrapreds ((constraint1 ))
:extrapreds ((constraint0 ))
:formula
(flet ($x607 (and constraint0 constraint1 constraint2 constraint3 constraint4 constraint5 constraint6 constraint7 constraint8 constraint9 constraint10 constraint11 constraint12 constraint13 constraint14 constraint15 constraint16 constraint17 constraint18 constraint19 constraint20 constraint21 constraint22 constraint23 constraint24 constraint25 constraint26 constraint27 constraint28 constraint29 constraint30 constraint31 constraint32 constraint33 constraint34 constraint35 constraint36 constraint37 constraint38 constraint39 constraint40 constraint41 constraint42 constraint43 constraint44 constraint45 constraint46 constraint47 constraint48 constraint49 constraint50 constraint51 constraint52 constraint53 constraint54 constraint55 constraint56 constraint57 constraint58 constraint59 constraint60 constraint61 constraint62 constraint63 constraint64 constraint65 constraint66 constraint67 constraint68 constraint69 constraint70 constraint71 constraint72 constraint73 constraint74 constraint75 constraint76 constraint77 constraint78 constraint79 constraint80 constraint81 constraint82 constraint83 constraint84 constraint85 constraint86 constraint87 constraint88 constraint89 constraint90 constraint91 constraint92 constraint93 constraint94 constraint95 constraint96 constraint97 constraint98 constraint99 constraint100 constraint101 constraint102 constraint103 constraint104 constraint105 constraint106 constraint107 constraint108 constraint109 constraint110 constraint111 constraint112 constraint113 constraint114 constraint115 constraint116 constraint117))
(flet ($x369 (= gtINDEX65 (select gtFIELD__bitsForTID0__gtAGG____anonstruct_D_Work_4 gtINDEX64)))
(flet ($x365 (= gtINDEX63 (select gtFIELD__bitsForTID0__gtAGG____anonstruct_D_Work_4 gtINDEX62)))
(flet ($x361 (= gtINDEX61 (select gtFIELD__bitsForTID0__gtAGG____anonstruct_D_Work_4 gtINDEX60)))
(flet ($x357 (= gtINDEX59 (select gtFIELD__bitsForTID0__gtAGG____anonstruct_D_Work_4 gtINDEX58)))
(flet ($x349 (= gtINDEX53 (select gtFIELD__bitsForTID0__gtAGG____anonstruct_D_Work_4 gtINDEX52)))
(flet ($x345 (= gtINDEX51 (select gtFIELD__bitsForTID0__gtAGG____anonstruct_D_Work_4 gtINDEX50)))
(flet ($x340 (= gtINDEX48 (select gtFIELD__bitsForTID0__gtAGG____anonstruct_D_Work_4 gtINDEX47)))
(flet ($x336 (= gtINDEX46 (select gtFIELD__bitsForTID0__gtAGG____anonstruct_D_Work_4 gtINDEX45)))
(flet ($x330 (= gtINDEX42 (select gtFIELD__bitsForTID0__gtAGG____anonstruct_D_Work_4 gtINDEX41)))
(flet ($x326 (= gtINDEX40 (select gtFIELD__bitsForTID0__gtAGG____anonstruct_D_Work_4 gtINDEX39)))
(flet ($x322 (= gtINDEX38 (select gtFIELD__bitsForTID0__gtAGG____anonstruct_D_Work_4 gtINDEX37)))
(flet ($x318 (= gtINDEX36 (select gtFIELD__bitsForTID0__gtAGG____anonstruct_D_Work_4 gtINDEX35)))
(flet ($x314 (= gtINDEX34 (select gtFIELD__bitsForTID0__gtAGG____anonstruct_D_Work_4 gtINDEX33)))
(flet ($x310 (= gtINDEX32 (select gtFIELD__bitsForTID0__gtAGG____anonstruct_D_Work_4 gtINDEX31)))
(flet ($x306 (= gtINDEX30 (select gtFIELD__bitsForTID0__gtAGG____anonstruct_D_Work_4 gtINDEX29)))
(flet ($x302 (= gtINDEX28 (select gtFIELD__bitsForTID0__gtAGG____anonstruct_D_Work_4 gtINDEX27)))
(flet ($x291 (= gtINDEX19 (select gtFIELD__bitsForTID0__gtAGG____anonstruct_D_Work_4 gtINDEX18)))
(flet ($x287 (= gtINDEX17 (select gtFIELD__bitsForTID0__gtAGG____anonstruct_D_Work_4 gtINDEX16)))
(flet ($x283 (= gtINDEX15 (select gtFIELD__bitsForTID0__gtAGG____anonstruct_D_Work_4 gtINDEX14)))
(flet ($x279 (= gtINDEX13 (select gtFIELD__bitsForTID0__gtAGG____anonstruct_D_Work_4 gtINDEX12)))
(flet ($x275 (= gtINDEX11 (select gtFIELD__bitsForTID0__gtAGG____anonstruct_D_Work_4 gtINDEX10)))
(flet ($x271 (= gtINDEX9 (select gtFIELD__bitsForTID0__gtAGG____anonstruct_D_Work_4 gtINDEX8)))
(flet ($x267 (= gtINDEX7 (select gtFIELD__bitsForTID0__gtAGG____anonstruct_D_Work_4 gtINDEX6)))
(flet ($x263 (= gtINDEX5 (select gtFIELD__bitsForTID0__gtAGG____anonstruct_D_Work_4 gtINDEX4)))
(flet ($x259 (= gtINDEX3 (select gtFIELD__bitsForTID0__gtAGG____anonstruct_D_Work_4 gtINDEX2)))
(flet ($x255 (= gtINDEX1 (select gtFIELD__bitsForTID0__gtAGG____anonstruct_D_Work_4 gtINDEX0)))
(let (?x239 (extract[0:0] bv1[32]))
(let (?x249 (store gtFIELD__is_Eng__gtAGG____anonstruct_bitsForTID0_5_1_ gtINDEX65 ?x239))
(flet ($x473 (iff constraint51 (= gtFIELD__is_Eng__gtAGG____anonstruct_bitsForTID0_5_2_ ?x249)))
(let (?x245 (select gtFIELD__is_Eng__gtAGG____anonstruct_bitsForTID0_5_1_ gtINDEX63))
(let (?x240 (store gtFIELD__is_Eng__gtAGG____anonstruct_bitsForTID0_5 gtINDEX61 ?x239))
(flet ($x467 (iff constraint48 (= gtFIELD__is_Eng__gtAGG____anonstruct_bitsForTID0_5_1_ ?x240)))
(let (?x236 (zero_extend[31] (select gtFIELD__is_Eng__gtAGG____anonstruct_bitsForTID0_5 gtINDEX59)))
(let (?x232 (store gtFIELD__sent__gtAGG____anonstruct_D_Work_4_1_ gtINDEX57 bv0[32]))
(flet ($x463 (iff constraint46 (= gtFIELD__sent__gtAGG____anonstruct_D_Work_4_2_ ?x232)))
(let (?x126 (bvmul bv4294967295[32] bv1[32]))
(flet ($x230 (= (select gtFIELD__sent__gtAGG____anonstruct_D_Work_4_1_ gtINDEX56) ?x126))
(flet ($x226 (= (select gtFIELD__sent__gtAGG____anonstruct_D_Work_4_1_ gtINDEX55) bv9[32]))
(flet ($x222 (= (select gtFIELD__sent__gtAGG____anonstruct_D_Work_4_1_ gtINDEX54) bv4[32]))
(let (?x218 (zero_extend[31] (select gtFIELD__is_Eng__gtAGG____anonstruct_bitsForTID0_5 gtINDEX53)))
(let (?x212 (select gtFIELD__is_active_Eng__gtAGG____anonstruct_bitsForTID0_5 gtINDEX51))
(let (?x209 (store gtFIELD__temporalCounter_i5__gtAGG____anonstruct_D_Work_4 gtINDEX49 bv0[32]))
(flet ($x451 (iff constraint40 (= gtFIELD__temporalCounter_i5__gtAGG____anonstruct_D_Work_4_1_ ?x209)))
(let (?x206 (store gtFIELD__is_PURI__gtAGG____anonstruct_bitsForTID0_5 gtINDEX48 (extract[1:0] bv1[32])))
(flet ($x449 (iff constraint39 (= gtFIELD__is_PURI__gtAGG____anonstruct_bitsForTID0_5_1_ ?x206)))
(let (?x202 (store gtFIELD__URIex__gtAGG____anonstruct_bitsForTID0_5 gtINDEX46 (extract[0:0] bv0[32])))
(flet ($x447 (iff constraint38 (= gtFIELD__URIex__gtAGG____anonstruct_bitsForTID0_5_1_ ?x202)))
(flet ($x199 (= gtFIELD__sh_rst__gtAGG____anonstruct_D_Work_4_1_ (store gtFIELD__sh_rst__gtAGG____anonstruct_D_Work_4 gtINDEX44 bv1[32])))
(flet ($x196 (= gtFIELD__n_t_a__gtAGG____anonstruct_D_Work_4_1_ (store gtFIELD__n_t_a__gtAGG____anonstruct_D_Work_4 gtINDEX43 bv0[32])))
(let (?x191 (select gtFIELD__is_PURI__gtAGG____anonstruct_bitsForTID0_5 gtINDEX42))
(let (?x186 (select gtFIELD__is_PURI__gtAGG____anonstruct_bitsForTID0_5 gtINDEX40))
(let (?x181 (select gtFIELD__is_active_PURI__gtAGG____anonstruct_bitsForTID0_5 gtINDEX38))
(let (?x175 (select gtFIELD__is_active_PVRP__gtAGG____anonstruct_bitsForTID0_5 gtINDEX36))
(let (?x169 (select gtFIELD__is_active_PPVARP__gtAGG____anonstruct_bitsForTID0_5 gtINDEX34))
(let (?x163 (select gtFIELD__is_active_PLRI__gtAGG____anonstruct_bitsForTID0_5 gtINDEX32))
(let (?x155 (select gtFIELD__is_PAVI__gtAGG____anonstruct_bitsForTID0_5 gtINDEX30))
(let (?x150 (select gtFIELD__is_active_PAVI__gtAGG____anonstruct_bitsForTID0_5 gtINDEX28))
(flet ($x142 (= gtFIELD__sent__gtAGG____anonstruct_D_Work_4_1_ (store gtFIELD__sent__gtAGG____anonstruct_D_Work_4 gtINDEX26 ?x126)))
(flet ($x139 (= (select gtFIELD__sent__gtAGG____anonstruct_D_Work_4 gtINDEX25) bv3[32]))
(flet ($x135 (= (select gtFIELD__sent__gtAGG____anonstruct_D_Work_4 gtINDEX24) bv2[32]))
(flet ($x131 (= (select gtFIELD__sent__gtAGG____anonstruct_D_Work_4 gtINDEX23) bv1[32]))
(flet ($x127 (= (select gtFIELD__sent__gtAGG____anonstruct_D_Work_4 gtINDEX22) ?x126))
(flet ($x121 (= (select gtFIELD__sent__gtAGG____anonstruct_D_Work_4 gtINDEX21) bv9[32]))
(flet ($x116 (= (select gtFIELD__sent__gtAGG____anonstruct_D_Work_4 gtINDEX20) bv4[32]))
(let (?x112 (zero_extend[31] (select gtFIELD__is_Eng__gtAGG____anonstruct_bitsForTID0_5 gtINDEX19)))
(let (?x106 (select gtFIELD__is_active_Eng__gtAGG____anonstruct_bitsForTID0_5 gtINDEX17))
(let (?x96 (select gtFIELD__is_PURI__gtAGG____anonstruct_bitsForTID0_5 gtINDEX15))
(let (?x91 (select gtFIELD__is_PURI__gtAGG____anonstruct_bitsForTID0_5 gtINDEX13))
(let (?x86 (select gtFIELD__is_active_PURI__gtAGG____anonstruct_bitsForTID0_5 gtINDEX11))
(let (?x80 (select gtFIELD__is_active_PVRP__gtAGG____anonstruct_bitsForTID0_5 gtINDEX9))
(let (?x74 (select gtFIELD__is_active_PPVARP__gtAGG____anonstruct_bitsForTID0_5 gtINDEX7))
(let (?x68 (select gtFIELD__is_active_PLRI__gtAGG____anonstruct_bitsForTID0_5 gtINDEX5))
(let (?x58 (zero_extend[29] (select gtFIELD__is_PAVI__gtAGG____anonstruct_bitsForTID0_5 gtINDEX3)))
(let (?x51 (select gtFIELD__is_active_PAVI__gtAGG____anonstruct_bitsForTID0_5 gtINDEX1))
(flet ($x606 (and (iff constraint0 (not (= sfEvent_ bv8[32]))) (iff constraint1 (not (= (zero_extend[31] ?x51) bv0[32]))) (iff constraint2 (= ?x58 bv1[32])) (iff constraint3 (not (= sfEvent_ bv2[32]))) (iff constraint4 (not (= sfEvent_ bv3[32]))) (iff constraint5 (not (not (= (zero_extend[31] ?x68) bv0[32])))) (iff constraint6 (not (not (= (zero_extend[31] ?x74) bv0[32])))) (iff constraint7 (not (not (= (zero_extend[31] ?x80) bv0[32])))) (iff constraint8 (not (= (zero_extend[31] ?x86) bv0[32]))) (iff constraint9 (not (= (zero_extend[30] ?x91) bv1[32]))) (iff constraint10 (= (zero_extend[30] ?x96) bv2[32])) (iff constraint11 (not (= sfEvent_ bv4[32]))) (iff constraint12 (not (= sfEvent_ bv5[32]))) (iff constraint13 (not (= (zero_extend[31] ?x106) bv0[32]))) (iff constraint14 (= ?x112 bv1[32])) (iff constraint15 (not $x116)) (iff constraint16 (not $x121)) (iff constraint17 (not $x127)) (iff constraint18 (not $x131)) (iff constraint19 (not $x135)) (iff constraint20 $x139) (iff constraint21 $x142) (iff constraint22 (= sf_previousEvent_1_ sfEvent_)) (iff constraint23 (= sfEvent__1_ bv4[32])) (iff constraint24 (not (= sfEvent__1_ bv8[32]))) (iff constraint25 (not (= (zero_extend[31] ?x150) bv0[32]))) (iff constraint26 (= (zero_extend[29] ?x155) bv1[32])) (iff constraint27 (not (= sfEvent__1_ bv2[32]))) (iff constraint28 (not (= sfEvent__1_ bv3[32]))) (iff constraint29 (not (not (= (zero_extend[31] ?x163) bv0[32])))) (iff constraint30 (not (not (= (zero_extend[31] ?x169) bv0[32])))) (iff constraint31 (not (not (= (zero_extend[31] ?x175) bv0[32])))) (iff constraint32 (not (= (zero_extend[31] ?x181) bv0[32]))) (iff constraint33 (not (= (zero_extend[30] ?x186) bv1[32]))) (iff constraint34 (= (zero_extend[30] ?x191) bv2[32])) (iff constraint35 (= sfEvent__1_ bv4[32])) (iff constraint36 $x196) (iff constraint37 $x199) $x447 $x449 $x451 (iff constraint41 (not (= (zero_extend[31] ?x212) bv0[32]))) (iff constraint42 (= ?x218 bv1[32])) (iff constraint43 (not $x222)) (iff constraint44 (not $x226)) (iff constraint45 $x230) $x463 (iff constraint47 (= ?x236 bv1[32])) $x467 (iff constraint49 (= sfEvent__2_ sf_previousEvent_1_)) (iff constraint50 (= (zero_extend[31] ?x245) bv1[32])) $x473 (iff constraint52 (= gtINDEX0 gtAGG__rtDWork)) (iff constraint53 $x255) (iff constraint54 (= gtINDEX2 gtAGG__rtDWork)) (iff constraint55 $x259) (iff constraint56 (= gtINDEX4 gtAGG__rtDWork)) (iff constraint57 $x263) (iff constraint58 (= gtINDEX6 gtAGG__rtDWork)) (iff constraint59 $x267) (iff constraint60 (= gtINDEX8 gtAGG__rtDWork)) (iff constraint61 $x271) (iff constraint62 (= gtINDEX10 gtAGG__rtDWork)) (iff constraint63 $x275) (iff constraint64 (= gtINDEX12 gtAGG__rtDWork)) (iff constraint65 $x279) (iff constraint66 (= gtINDEX14 gtAGG__rtDWork)) (iff constraint67 $x283) (iff constraint68 (= gtINDEX16 gtAGG__rtDWork)) (iff constraint69 $x287) (iff constraint70 (= gtINDEX18 gtAGG__rtDWork)) (iff constraint71 $x291) (iff constraint72 (= gtINDEX20 gtAGG__rtDWork)) (iff constraint73 (= gtINDEX21 gtAGG__rtDWork)) (iff constraint74 (= gtINDEX22 gtAGG__rtDWork)) (iff constraint75 (= gtINDEX23 gtAGG__rtDWork)) (iff constraint76 (= gtINDEX24 gtAGG__rtDWork)) (iff constraint77 (= gtINDEX25 gtAGG__rtDWork)) (iff constraint78 (= gtINDEX26 gtAGG__rtDWork)) (iff constraint79 (= gtINDEX27 gtAGG__rtDWork)) (iff constraint80 $x302) (iff constraint81 (= gtINDEX29 gtAGG__rtDWork)) (iff constraint82 $x306) (iff constraint83 (= gtINDEX31 gtAGG__rtDWork)) (iff constraint84 $x310) (iff constraint85 (= gtINDEX33 gtAGG__rtDWork)) (iff constraint86 $x314) (iff constraint87 (= gtINDEX35 gtAGG__rtDWork)) (iff constraint88 $x318) (iff constraint89 (= gtINDEX37 gtAGG__rtDWork)) (iff constraint90 $x322) (iff constraint91 (= gtINDEX39 gtAGG__rtDWork)) (iff constraint92 $x326) (iff constraint93 (= gtINDEX41 gtAGG__rtDWork)) (iff constraint94 $x330) (iff constraint95 (= gtINDEX43 gtAGG__rtDWork)) (iff constraint96 (= gtINDEX44 gtAGG__rtDWork)) (iff constraint97 (= gtINDEX45 gtAGG__rtDWork)) (iff constraint98 $x336) (iff constraint99 (= gtINDEX47 gtAGG__rtDWork)) (iff constraint100 $x340) (iff constraint101 (= gtINDEX49 gtAGG__rtDWork)) (iff constraint102 (= gtINDEX50 gtAGG__rtDWork)) (iff constraint103 $x345) (iff constraint104 (= gtINDEX52 gtAGG__rtDWork)) (iff constraint105 $x349) (iff constraint106 (= gtINDEX54 gtAGG__rtDWork)) (iff constraint107 (= gtINDEX55 gtAGG__rtDWork)) (iff constraint108 (= gtINDEX56 gtAGG__rtDWork)) (iff constraint109 (= gtINDEX57 gtAGG__rtDWork)) (iff constraint110 (= gtINDEX58 gtAGG__rtDWork)) (iff constraint111 $x357) (iff constraint112 (= gtINDEX60 gtAGG__rtDWork)) (iff constraint113 $x361) (iff constraint114 (= gtINDEX62 gtAGG__rtDWork)) (iff constraint115 $x365) (iff constraint116 (= gtINDEX64 gtAGG__rtDWork)) (iff constraint117 $x369)))
(and $x606 $x607)))))))))))))))))))))))))))))))))))))))))))))))))))))))))))))))))))))))))))))
)
